0, 2989, 2658.66, 2259
1, 2847, 2511.56, 2072
2, 2694, 2398.05, 2072
3, 2561, 2318.26, 2042
4, 2440, 2227.95, 2034
5, 2469, 2160.45, 1924
6, 2271, 2091.77, 1924
7, 2409, 2058.09, 1890
8, 2257, 2017.98, 1865
9, 2245, 1982.65, 1705
